Version identifier: 22.1.0.0 | 2022-03-09 | 1a383f8ce
CPXPARAM_Read_DataCheck                          1
Tried aggregator 3 times.
MIP Presolve eliminated 11474 rows and 1872 columns.
MIP Presolve modified 244 coefficients.
Aggregator did 9860 substitutions.
Reduced MIP has 2093 rows, 10408 columns, and 22898 nonzeros.
Reduced MIP has 10390 binaries, 18 generals, 0 SOSs, and 0 indicators.
Presolve time = 0.08 sec. (83.48 ticks)
Probing fixed 28 vars, tightened 0 bounds.
Probing changed sense of 5 constraints.
Probing time = 0.02 sec. (3.44 ticks)
Tried aggregator 2 times.
Detecting symmetries...
MIP Presolve eliminated 24 rows and 33 columns.
Aggregator did 14 substitutions.
Reduced MIP has 2055 rows, 10361 columns, and 22739 nonzeros.
Reduced MIP has 10343 binaries, 18 generals, 0 SOSs, and 0 indicators.
Presolve time = 0.02 sec. (22.94 ticks)
Probing fixed 3 vars, tightened 0 bounds.
Probing time = 0.03 sec. (3.92 ticks)
Clique table members: 21498.
MIP emphasis: balance optimality and feasibility.
MIP search method: dynamic search.
Parallel mode: deterministic, using up to 8 threads.
Root relaxation solution time = 0.15 sec. (71.67 ticks)

        Nodes                                         Cuts/
   Node  Left     Objective  IInf  Best Integer    Best Bound    ItCnt     Gap

      0     0       18.4008  1498                     18.4008     1800         
      0     0       29.0000   469                    Cuts: 50     3485         
      0     0       29.0000   443                    Cuts: 35     4744         
      0     0       29.0000   434                ZeroHalf: 27     5417         
      0     0       29.0000   521                ZeroHalf: 22     6266         
      0     0       29.0000   478                 ZeroHalf: 2     6550         
      0     0       29.0000   561                    Cuts: 32     8536         
*     0+    0                           31.0000       29.0000             6.45%
*     0+    0                           30.0000       29.0000             3.33%

Repeating presolve.
Tried aggregator 3 times.
MIP Presolve eliminated 415 rows and 5630 columns.
MIP Presolve modified 7 coefficients.
Aggregator did 335 substitutions.
Reduced MIP has 1305 rows, 4396 columns, and 10063 nonzeros.
Reduced MIP has 4396 binaries, 0 generals, 0 SOSs, and 0 indicators.
Presolve time = 0.02 sec. (22.48 ticks)
Represolve time = 0.05 sec. (40.18 ticks)

Root node processing (before b&c):
  Real time             =   11.05 sec. (8929.28 ticks)
Parallel b&c, 8 threads:
  Real time             =    0.00 sec. (0.00 ticks)
  Sync time (average)   =    0.00 sec.
  Wait time (average)   =    0.00 sec.
                          ------------
Total (root+branch&cut) =   11.05 sec. (8929.28 ticks)
